Geographic Exponential Decay
40 106 238 189 226 23 222 182 175 311 274 86 137 31 180 261 77 168 20 255 7 251 198 264 179 119 83 6 221 286 69 280 67 163 103 36 130 18 270 113 107
p edge 320 325
e 0 186 1.0
e 1 314 2.0
e 1 0 11.0
e 2 317 3.0
e 2 1 1.0
e 3 87 1.0
e 3 2 2.0
e 4 179 93.0
e 4 3 3.0
e 5 250 1.0
e 5 4 9.0
e 6 7 42.0
e 6 161 100.0
e 6 299 78.0
e 6 160 1.0
e 6 294 78.0
e 6 5 80.0
e 7 133 25.0
e 7 310 83.0
e 7 110 99.0
e 7 172 11.0
e 8 134 9.0
e 8 6 58.0
e 9 287 1.0
e 9 8 5.0
e 10 268 4.0
e 10 9 5.0
e 11 77 84.0
e 12 112 12.0
e 12 10 4.0
e 13 193 2.0
e 13 12 3.0
e 14 270 28.0
e 15 46 1.0
e 15 13 2.0
e 16 116 1.0
e 16 15 1.0
e 17 267 1.0
e 17 16 1.0
e 18 19 23.0
e 18 163 12.0
e 18 203 64.0
e 18 73 53.0
e 18 41 3.0
e 18 17 40.0
e 20 81 86.0
e 20 74 13.0
e 20 99 24.0
e 20 204 41.0
e 20 56 77.0
e 20 18 22.0
e 21 26 2.0
e 21 20 7.0
e 22 170 3.0
e 22 21 2.0
e 23 194 89.0
e 23 61 93.0
e 23 111 81.0
e 23 47 36.0
e 23 263 44.0
e 23 22 11.0
e 24 263 24.0
e 24 215 15.0
e 25 266 2.0
e 25 23 5.0
e 27 50 10.0
e 27 25 1.0
e 28 242 1.0
e 28 27 1.0
e 29 30 4.0
e 29 28 3.0
e 31 236 72.0
e 31 252 30.0
e 31 105 96.0
e 31 313 56.0
e 31 128 6.0
e 32 33 2.0
e 32 29 5.0
e 34 279 6.0
e 34 32 2.0
e 35 160 1.0
e 36 37 11.0
e 36 190 58.0
e 36 85 56.0
e 36 69 11.0
e 36 187 92.0
e 36 34 7.0
e 38 167 2.0
e 38 36 2.0
e 39 241 1.0
e 39 38 2.0
e 40 158 1.0
e 40 39 3.0
e 42 168 10.0
e 43 138 5.0
e 43 40 1.0
e 44 102 1.0
e 44 43 7.0
e 45 48 1.0
e 45 44 1.0
e 49 58 3.0
e 49 45 4.0
e 51 218 1.0
e 51 49 2.0
e 52 262 3.0
e 52 51 1.0
e 53 247 4.0
e 53 52 1.0
e 54 264 54.0
e 55 253 1.0
e 55 53 1.0
e 57 225 1.0
e 57 55 1.0
e 59 284 1.0
e 59 57 2.0
e 60 283 2.0
e 60 59 5.0
e 62 243 3.0
e 62 60 1.0
e 63 277 6.0
e 63 62 3.0
e 64 115 2.0
e 64 63 5.0
e 65 212 1.0
e 65 64 1.0
e 66 121 1.0
e 66 65 1.0
e 67 135 33.0
e 67 68 30.0
e 67 300 32.0
e 67 265 89.0
e 67 261 74.0
e 69 70 79.0
e 69 143 85.0
e 69 177 79.0
e 69 231 95.0
e 70 228 9.0
e 71 106 71.0
e 72 75 1.0
e 72 66 1.0
e 76 94 1.0
e 76 72 1.0
e 77 137 59.0
e 77 188 43.0
e 77 78 31.0
e 77 249 36.0
e 79 213 14.0
e 79 149 2.0
e 79 76 24.0
e 80 173 2.0
e 80 79 15.0
e 82 285 7.0
e 82 80 1.0
e 83 195 100.0
e 83 269 48.0
e 83 245 29.0
e 83 101 45.0
e 83 307 84.0
e 83 82 3.0
e 84 86 96.0
e 86 226 37.0
e 86 178 54.0
e 86 88 43.0
e 86 254 52.0
e 89 90 10.0
e 89 83 69.0
e 91 261 81.0
e 92 244 12.0
e 92 89 1.0
e 93 248 8.0
e 93 92 3.0
e 95 219 2.0
e 95 93 1.0
e 96 175 97.0
e 97 98 2.0
e 97 95 2.0
e 100 119 79.0
e 103 301 20.0
e 103 196 46.0
e 103 295 68.0
e 103 104 49.0
e 103 197 38.0
e 103 97 30.0
e 106 163 56.0
e 106 286 28.0
e 106 237 68.0
e 106 165 45.0
e 107 145 23.0
e 107 108 60.0
e 107 315 96.0
e 107 159 33.0
e 107 109 65.0
e 107 103 48.0
e 113 156 10.0
e 113 251 2.0
e 113 136 67.0
e 113 214 99.0
e 113 114 18.0
e 117 118 1.0
e 117 107 69.0
e 119 313 85.0
e 119 255 5.0
e 119 163 4.0
e 119 232 87.0
e 120 174 5.0
e 120 117 6.0
e 122 220 1.0
e 122 120 2.0
e 123 150 5.0
e 123 122 1.0
e 124 125 2.0
e 124 123 2.0
e 126 127 9.0
e 126 124 10.0
e 129 298 1.0
e 129 126 11.0
e 130 131 16.0
e 130 146 8.0
e 130 198 62.0
e 130 132 77.0
e 130 281 81.0
e 137 205 97.0
e 137 139 56.0
e 137 140 55.0
e 137 216 98.0
e 141 311 27.0
e 142 198 27.0
e 142 221 85.0
e 144 147 2.0
e 144 148 18.0
e 144 129 14.0
e 151 152 2.0
e 151 144 9.0
e 153 288 1.0
e 153 151 1.0
e 154 155 6.0
e 154 153 4.0
e 157 297 4.0
e 157 154 5.0
e 162 264 18.0
e 163 278 95.0
e 163 200 71.0
e 164 290 9.0
e 164 157 2.0
e 166 168 53.0
e 168 169 46.0
e 168 170 92.0
e 168 302 20.0
e 171 293 2.0
e 171 164 2.0
e 175 198 55.0
e 175 176 54.0
e 175 200 84.0
e 175 223 54.0
e 179 180 91.0
e 179 181 55.0
e 179 182 36.0
e 179 183 66.0
e 180 182 82.0
e 180 184 11.0
e 180 185 89.0
e 180 233 61.0
e 182 188 11.0
e 182 246 33.0
e 182 270 39.0
e 189 191 83.0
e 189 192 62.0
e 189 198 86.0
e 189 199 11.0
e 189 201 94.0
e 198 316 96.0
e 199 318 10.0
e 202 206 6.0
e 202 171 1.0
e 207 208 2.0
e 207 202 2.0
e 209 210 3.0
e 209 207 10.0
e 211 303 8.0
e 211 209 1.0
e 217 251 20.0
e 221 222 99.0
e 221 292 96.0
e 221 286 16.0
e 221 251 57.0
e 222 224 59.0
e 222 226 70.0
e 222 227 84.0
e 222 251 72.0
e 226 234 13.0
e 226 229 45.0
e 226 319 59.0
e 230 235 1.0
e 230 211 1.0
e 238 239 38.0
e 238 240 85.0
e 238 251 99.0
e 238 255 67.0
e 238 256 64.0
e 240 282 47.0
e 240 255 58.0
e 255 257 19.0
e 255 289 28.0
e 258 260 7.0
e 258 230 1.0
e 259 286 61.0
e 261 264 50.0
e 261 270 69.0
e 261 271 87.0
e 264 270 19.0
e 264 304 93.0
e 270 272 11.0
e 273 274 89.0
e 274 275 69.0
e 274 276 23.0
e 274 291 27.0
e 274 279 8.0
e 280 311 47.0
e 280 286 90.0
e 280 296 74.0
e 280 305 46.0
e 280 306 77.0
e 286 308 36.0
e 309 311 62.0
e 311 312 77.0
